
  32    4
  10   10   10   10

   0   0   0   0   0   2 2 3 
   9  10  10  10  10   2 6 4 
  10  10  10  10  10   1 4 
   4  10  10  10  10   1 5 
   2  10  10  10  10   1 7 
   7  10  10  10  10   1 7 
   7  10  10  10  10   1 8 
   8  10  10  10  10   2 11 9 
   8  10  10  10  10   1 10 
   2  10  10  10  10   1 12 
   8  10  10  10  10   1 12 
   8  10  10  10  10   1 13 
   3  10  10  10  10   1 14 
   1  10  10  10  10   1 15 
   1  10  10  10  10   1 16 
   5  10  10  10  10   1 17 
   9  10  10  10  10   2 19 18 
   7  10  10  10  10   1 20 
   7  10  10  10  10   1 20 
   6  10  10  10  10   1 21 
   3  10  10  10  10   2 23 22 
   4  10  10  10  10   1 24 
   1  10  10  10  10   1 24 
   3  10  10  10  10   1 25 
   2  10  10  10  10   1 26 
   5  10  10  10  10   2 31 27 
   1  10  10  10  10   1 28 
   3  10  10  10  10   1 29 
  10  10  10  10  10   1 30 
   3  10  10  10  10   1 32
   6  10  10  10  10   1 32
   0   0   0   0   0   0 
